l=1872;
a=2;
setup_costs=[|1,3,
|3,0,
|0,0|];
setup_times=[|0,3,
|3,0,
|0,0|];
m=2;
min_cap=[0,0];
max_cap=[20,20];

initState=[1,2];
s=5;
m_a_s = [|569,730,1344,1529,1758,
|0,0,1356,1760,1843|];
m_a_e = [|612,1172,1501,1658,1861,
|0,0,1699,1842,1870|];
n=50;
eligible_machine = [{2},
{1},
{2,1},
{1,2},
{2,1},
{1,2},
{2,1},
{1,2},
{1},
{1,2},
{1},
{2},
{1,2},
{2,1},
{2},
{2,1},
{2,1},
{2},
{2,1},
{2,1},
{1,2},
{1,2},
{1,2},
{2,1},
{2},
{2,1},
{1,2},
{2,1},
{1},
{1,2},
{1},
{1},
{1},
{1,2},
{2,1},
{1,2},
{1},
{2,1},
{2},
{2,1},
{1},
{2},
{1,2},
{2,1},
{2,1},
{1},
{1},
{1,2},
{1},
{1}];
earliest_start=[43,56,22,112,43,4,66,60,112,0,59,31,84,5,93,99,86,128,41,64,30,59,16,54,11,43,68,78,93,10,75,4,70,63,120,27,51,67,102,71,105,136,116,110,135,57,61,107,103,98];
latest_end=[58,69,24,120,56,9,77,70,117,7,62,34,92,13,100,108,92,135,47,73,44,66,30,57,18,48,73,96,96,12,78,15,80,64,132,33,65,84,113,81,114,141,123,114,147,69,72,112,110,106];
min_time=[10,10,2,7,7,5,6,6,3,7,3,2,5,5,7,6,4,4,4,7,8,4,9,3,5,3,5,10,3,2,3,10,7,1,8,4,10,10,6,8,6,3,6,4,8,7,8,4,4,5];
max_time=[10,10,7,9,8,7,6,9,7,9,10,7,10,9,10,10,8,9,10,9,8,5,9,10,8,6,9,10,5,4,9,10,9,9,10,5,10,10,10,8,8,3,7,8,9,7,9,10,7,6];
size=[19,15,3,13,15,16,12,4,6,7,19,2,6,8,10,4,7,6,8,11,18,19,11,4,13,6,18,14,16,5,6,20,15,14,10,18,7,4,16,5,1,17,4,14,20,3,11,15,4,2];
attribute=[2,1,1,1,2,1,2,1,2,1,1,2,2,1,1,2,1,2,1,1,2,1,1,1,2,1,2,2,2,2,2,2,2,1,1,2,1,2,1,1,2,2,2,1,1,2,1,2,1,2];

upper_bound_integer_objective=31500;
mult_factor_total_runtime=4;
mult_factor_finished_toolate=600;
mult_factor_total_setuptimes=0;
mult_factor_total_setupcosts=2;
running_time_bound=284;
min_duration=1;
max_duration=10;
max_setup_time=3;
max_setup_cost=3;
